120761
16,55,6,26,29,78,5,60,77,68,24,14,1,80,59,56,2,11,22,41,54,42,33,48,46,71,50,37,34,27,82,7,43,20,70,53,45,44,79,61,69,25,35,65,8,57,73,31,39,32,15,10,74,81,67,58,52,3,49,62,38,40,51,64,30,23,18,21,4,47,17,36,12,72,63,0,9,28,13,75,66,19,76,16